(set-logic QF_NRA)
(declare-fun c2uscore2dollarsk_13 () Real)
(declare-fun x2uscore7dollarsk_8 () Real)
(declare-fun omuscore3dollarsk_12 () Real)
(declare-fun d1uscore7dollarsk_10 () Real)
(declare-fun c1uscore2dollarsk_14 () Real)
(declare-fun x1uscore7dollarsk_9 () Real)
(declare-fun d2uscore7dollarsk_11 () Real)
(declare-fun y2uscore7dollarsk_4 () Real)
(declare-fun e1uscore7dollarsk_6 () Real)
(declare-fun y1uscore7dollarsk_5 () Real)
(declare-fun e2uscore7dollarsk_7 () Real)
(declare-fun z2uscore6dollarsk_0 () Real)
(declare-fun f1uscore6dollarsk_2 () Real)
(declare-fun z1uscore6dollarsk_1 () Real)
(declare-fun f2uscore7dollarsk_3 () Real)
(declare-fun protectedzone () Real)
(declare-fun y2uscore3dollarsk_17 () Real)
(declare-fun x2uscore3dollarsk_19 () Real)
(declare-fun y1uscore3dollarsk_18 () Real)
(declare-fun x1uscore3dollarsk_20 () Real)
(declare-fun z2uscore3dollarsk_15 () Real)
(declare-fun z1uscore3dollarsk_16 () Real)
(declare-fun y2uscore2dollarsk_26 () Real)
(declare-fun x2uscore2dollarsk_24 () Real)
(declare-fun y1uscore2dollarsk_25 () Real)
(declare-fun x1uscore2dollarsk_23 () Real)
(declare-fun z2uscore2dollarsk_22 () Real)
(declare-fun z1uscore2dollarsk_21 () Real)
(declare-fun y2 () Real)
(declare-fun x2 () Real)
(declare-fun y1 () Real)
(declare-fun x1 () Real)
(declare-fun z2 () Real)
(declare-fun z1 () Real)
(assert (= (+ d1uscore7dollarsk_10 (* (- 1) (* c2uscore2dollarsk_13 omuscore3dollarsk_12)) (* x2uscore7dollarsk_8 omuscore3dollarsk_12)) 0))
(assert (= (+ d2uscore7dollarsk_11 (* omuscore3dollarsk_12 c1uscore2dollarsk_14) (* (- 1) (* omuscore3dollarsk_12 x1uscore7dollarsk_9))) 0))
(assert (= (+ e1uscore7dollarsk_6 (* (- 1) (* c2uscore2dollarsk_13 omuscore3dollarsk_12)) (* omuscore3dollarsk_12 y2uscore7dollarsk_4)) 0))
(assert (= (+ e2uscore7dollarsk_7 (* omuscore3dollarsk_12 c1uscore2dollarsk_14) (* (- 1) (* omuscore3dollarsk_12 y1uscore7dollarsk_5))) 0))
(assert (= (+ f1uscore6dollarsk_2 (* (- 1) (* c2uscore2dollarsk_13 omuscore3dollarsk_12)) (* omuscore3dollarsk_12 z2uscore6dollarsk_0)) 0))
(assert (= (+ f2uscore7dollarsk_3 (* omuscore3dollarsk_12 c1uscore2dollarsk_14) (* (- 1) (* omuscore3dollarsk_12 z1uscore6dollarsk_1))) 0))
(assert (>= (+ (* (- 1) (* protectedzone protectedzone)) (* y1uscore3dollarsk_18 y1uscore3dollarsk_18) (* (- 2) (* y1uscore3dollarsk_18 x1uscore3dollarsk_20)) (* x1uscore3dollarsk_20 x1uscore3dollarsk_20) (* y2uscore3dollarsk_17 y2uscore3dollarsk_17) (* (- 2) (* y2uscore3dollarsk_17 x2uscore3dollarsk_19)) (* x2uscore3dollarsk_19 x2uscore3dollarsk_19)) 0))
(assert (>= (+ (* (- 1) (* protectedzone protectedzone)) (* y1uscore3dollarsk_18 y1uscore3dollarsk_18) (* y2uscore3dollarsk_17 y2uscore3dollarsk_17) (* (- 2) (* y1uscore3dollarsk_18 z1uscore3dollarsk_16)) (* z1uscore3dollarsk_16 z1uscore3dollarsk_16) (* (- 2) (* y2uscore3dollarsk_17 z2uscore3dollarsk_15)) (* z2uscore3dollarsk_15 z2uscore3dollarsk_15)) 0))
(assert (>= (+ (* (- 1) (* protectedzone protectedzone)) (* x1uscore3dollarsk_20 x1uscore3dollarsk_20) (* x2uscore3dollarsk_19 x2uscore3dollarsk_19) (* z1uscore3dollarsk_16 z1uscore3dollarsk_16) (* z2uscore3dollarsk_15 z2uscore3dollarsk_15) (* (- 2) (* x1uscore3dollarsk_20 z1uscore3dollarsk_16)) (* (- 2) (* x2uscore3dollarsk_19 z2uscore3dollarsk_15))) 0))
(assert (>= (+ (* (- 1) (* protectedzone protectedzone)) (* y1uscore2dollarsk_25 y1uscore2dollarsk_25) (* (- 2) (* y1uscore2dollarsk_25 x1uscore2dollarsk_23)) (* x1uscore2dollarsk_23 x1uscore2dollarsk_23) (* y2uscore2dollarsk_26 y2uscore2dollarsk_26) (* (- 2) (* y2uscore2dollarsk_26 x2uscore2dollarsk_24)) (* x2uscore2dollarsk_24 x2uscore2dollarsk_24)) 0))
(assert (>= (+ (* (- 1) (* protectedzone protectedzone)) (* y1uscore2dollarsk_25 y1uscore2dollarsk_25) (* y2uscore2dollarsk_26 y2uscore2dollarsk_26) (* (- 2) (* y1uscore2dollarsk_25 z1uscore2dollarsk_21)) (* z1uscore2dollarsk_21 z1uscore2dollarsk_21) (* (- 2) (* y2uscore2dollarsk_26 z2uscore2dollarsk_22)) (* z2uscore2dollarsk_22 z2uscore2dollarsk_22)) 0))
(assert (>= (+ (* (- 1) (* protectedzone protectedzone)) (* x1uscore2dollarsk_23 x1uscore2dollarsk_23) (* x2uscore2dollarsk_24 x2uscore2dollarsk_24) (* z1uscore2dollarsk_21 z1uscore2dollarsk_21) (* z2uscore2dollarsk_22 z2uscore2dollarsk_22) (* (- 2) (* x1uscore2dollarsk_23 z1uscore2dollarsk_21)) (* (- 2) (* x2uscore2dollarsk_24 z2uscore2dollarsk_22))) 0))
(assert (>= (+ (* (- 1) (* protectedzone protectedzone)) (* y1 y1) (* (- 2) (* y1 x1)) (* x1 x1) (* y2 y2) (* (- 2) (* y2 x2)) (* x2 x2)) 0))
(assert (>= (+ (* (- 1) (* protectedzone protectedzone)) (* y1 y1) (* y2 y2) (* (- 2) (* y1 z1)) (* z1 z1) (* (- 2) (* y2 z2)) (* z2 z2)) 0))
(assert (>= (+ (* (- 1) (* protectedzone protectedzone)) (* x1 x1) (* x2 x2) (* z1 z1) (* z2 z2) (* (- 2) (* x1 z1)) (* (- 2) (* x2 z2))) 0))
(assert (not (>= (+ (* 2 (* d1uscore7dollarsk_10 x1uscore7dollarsk_9)) (* (- 2) (* x1uscore7dollarsk_9 e1uscore7dollarsk_6)) (* (- 2) (* d1uscore7dollarsk_10 y1uscore7dollarsk_5)) (* 2 (* e1uscore7dollarsk_6 y1uscore7dollarsk_5)) (* 2 (* x2uscore7dollarsk_8 d2uscore7dollarsk_11)) (* (- 2) (* x2uscore7dollarsk_8 e2uscore7dollarsk_7)) (* (- 2) (* d2uscore7dollarsk_11 y2uscore7dollarsk_4)) (* 2 (* y2uscore7dollarsk_4 e2uscore7dollarsk_7))) 0)))
(check-sat)
